Route #1: 1 7 11 42 53 57 14 62 25 17 10 1
Route #2: 1 56 50 40 45 22 36 27 15 28 8 41 37 1
Route #3: 1 43 21 20 52 24 38 1
Route #4: 1 26 30 46 16 12 58 1
Route #5: 1 34 49 63 1
Route #6: 1 18 2 44 29 13 19 39 1
Route #7: 1 33 35 5 55 6 60 32 1
Route #8: 1 47 9 61 48 64 3 59 51 1
Route #9: 1 31 54 4 23 1
cost 1653.3953222951454
